<number of tasks>
50

<cycle time>
1000

<order strength>
0.195


<task times>
1 261
2 574
3 214
4 126
5 113
6 431
7 166
8 386
9 153
10 125
11 62
12 226
13 377
14 89
15 168
16 354
17 303
18 235
19 128
20 230
21 319
22 126
23 274
24 27
25 146
26 130
27 150
28 231
29 158
30 358
31 206
32 106
33 127
34 221
35 169
36 157
37 175
38 141
39 116
40 225
41 154
42 29
43 84
44 588
45 91
46 83
47 317
48 42
49 174
50 85

<precedence relations>
1,7
2,8
2,9
2,26
3,19
3,25
4,11
4,19
4,48
5,10
5,12
6,13
6,47
7,14
8,15
9,18
10,16
10,33
10,47
10,50
11,17
11,20
11,21
12,19
13,29
13,50
14,22
15,25
16,23
17,24
18,25
19,26
20,42
22,27
23,28
24,29
25,30
25,32
26,31
26,33
27,34
28,35
30,50
31,36
32,37
34,40
35,39
36,38
37,41
37,42
37,43
38,44
39,45
40,46
41,48
43,47
43,49
43,50

<end>
